Using 12 cores
	Test input_order/indomain_min with N=15
%%%mzn-stat: solveTime=0.007977
%%%mzn-stat: solutions=1
%%%mzn-stat: failures=97
%%%mzn-stat: solveTime=0.008012
%%%mzn-stat: solutions=1
%%%mzn-stat: failures=97
%%%mzn-stat: solveTime=0.007894
%%%mzn-stat: solutions=1
%%%mzn-stat: failures=97
%%%mzn-stat: solveTime=0.007968
%%%mzn-stat: solutions=1
%%%mzn-stat: failures=97
%%%mzn-stat: solveTime=0.008016
%%%mzn-stat: solutions=1
%%%mzn-stat: failures=97
	Test first_fail/indomain_min with N=15
%%%mzn-stat: solveTime=0.007245
%%%mzn-stat: solutions=1
%%%mzn-stat: failures=13
%%%mzn-stat: solveTime=0.007378
%%%mzn-stat: solutions=1
%%%mzn-stat: failures=13
%%%mzn-stat: solveTime=0.007316
%%%mzn-stat: solutions=1
%%%mzn-stat: failures=13
%%%mzn-stat: solveTime=0.007226
%%%mzn-stat: solutions=1
%%%mzn-stat: failures=13
%%%mzn-stat: solveTime=0.007305
%%%mzn-stat: solutions=1
%%%mzn-stat: failures=13
	Test dom_w_deg/indomain_min with N=15
%%%mzn-stat: solveTime=0.007534
%%%mzn-stat: solutions=1
%%%mzn-stat: failures=13
%%%mzn-stat: solveTime=0.007717
%%%mzn-stat: solutions=1
%%%mzn-stat: failures=13
%%%mzn-stat: solveTime=0.007688
%%%mzn-stat: solutions=1
%%%mzn-stat: failures=13
%%%mzn-stat: solveTime=0.007632
%%%mzn-stat: solutions=1
%%%mzn-stat: failures=13
%%%mzn-stat: solveTime=0.007645
%%%mzn-stat: solutions=1
%%%mzn-stat: failures=13
	Test input_order/indomain_random with N=15
%%%mzn-stat: solveTime=0.00817
%%%mzn-stat: solutions=1
%%%mzn-stat: failures=106
%%%mzn-stat: solveTime=0.008085
%%%mzn-stat: solutions=1
%%%mzn-stat: failures=106
%%%mzn-stat: solveTime=0.008036
%%%mzn-stat: solutions=1
%%%mzn-stat: failures=106
%%%mzn-stat: solveTime=0.008029
%%%mzn-stat: solutions=1
%%%mzn-stat: failures=106
%%%mzn-stat: solveTime=0.008212
%%%mzn-stat: solutions=1
%%%mzn-stat: failures=106
	Test dom_w_deg/indomain_random with N=15
%%%mzn-stat: solveTime=0.007906
%%%mzn-stat: solutions=1
%%%mzn-stat: failures=27
%%%mzn-stat: solveTime=0.007878
%%%mzn-stat: solutions=1
%%%mzn-stat: failures=27
%%%mzn-stat: solveTime=0.007993
%%%mzn-stat: solutions=1
%%%mzn-stat: failures=27
%%%mzn-stat: solveTime=0.007848
%%%mzn-stat: solutions=1
%%%mzn-stat: failures=27
%%%mzn-stat: solveTime=0.007968
%%%mzn-stat: solutions=1
%%%mzn-stat: failures=27
	Test input_order/indomain_min with N=16
%%%mzn-stat: solveTime=0.017934
%%%mzn-stat: solutions=1
%%%mzn-stat: failures=1552
%%%mzn-stat: solveTime=0.017388
%%%mzn-stat: solutions=1
%%%mzn-stat: failures=1409
%%%mzn-stat: solveTime=0.070613
%%%mzn-stat: solutions=1
%%%mzn-stat: failures=9729
%%%mzn-stat: solveTime=0.071635
%%%mzn-stat: solutions=1
%%%mzn-stat: failures=9418
%%%mzn-stat: solveTime=0.081085
%%%mzn-stat: solutions=1
%%%mzn-stat: failures=10974
	Test first_fail/indomain_min with N=16
%%%mzn-stat: solveTime=0.007391
%%%mzn-stat: solutions=1
%%%mzn-stat: failures=19
%%%mzn-stat: solveTime=0.007494
%%%mzn-stat: solutions=1
%%%mzn-stat: failures=19
%%%mzn-stat: solveTime=0.007367
%%%mzn-stat: solutions=1
%%%mzn-stat: failures=19
%%%mzn-stat: solveTime=0.007356
%%%mzn-stat: solutions=1
%%%mzn-stat: failures=19
%%%mzn-stat: solveTime=0.0074
%%%mzn-stat: solutions=1
%%%mzn-stat: failures=19
	Test dom_w_deg/indomain_min with N=16
%%%mzn-stat: solveTime=0.007693
%%%mzn-stat: solutions=1
%%%mzn-stat: failures=19
%%%mzn-stat: solveTime=0.007844
%%%mzn-stat: solutions=1
%%%mzn-stat: failures=19
%%%mzn-stat: solveTime=0.007652
%%%mzn-stat: solutions=1
%%%mzn-stat: failures=19
%%%mzn-stat: solveTime=0.007745
%%%mzn-stat: solutions=1
%%%mzn-stat: failures=19
%%%mzn-stat: solveTime=0.007687
%%%mzn-stat: solutions=1
%%%mzn-stat: failures=19
	Test input_order/indomain_random with N=16
%%%mzn-stat: solveTime=0.95212
%%%mzn-stat: solutions=1
%%%mzn-stat: failures=137672
%%%mzn-stat: solveTime=0.407787
%%%mzn-stat: solutions=1
%%%mzn-stat: failures=60069
%%%mzn-stat: solveTime=0.439228
%%%mzn-stat: solutions=1
%%%mzn-stat: failures=62611
%%%mzn-stat: solveTime=0.800842
%%%mzn-stat: solutions=1
%%%mzn-stat: failures=122667
%%%mzn-stat: solveTime=0.562585
%%%mzn-stat: solutions=1
%%%mzn-stat: failures=83600
	Test dom_w_deg/indomain_random with N=16
%%%mzn-stat: solveTime=0.008579
%%%mzn-stat: solutions=1
%%%mzn-stat: failures=69
%%%mzn-stat: solveTime=0.013157
%%%mzn-stat: solutions=1
%%%mzn-stat: failures=677
%%%mzn-stat: solveTime=0.008867
%%%mzn-stat: solutions=1
%%%mzn-stat: failures=118
%%%mzn-stat: solveTime=0.00914
%%%mzn-stat: solutions=1
%%%mzn-stat: failures=146
%%%mzn-stat: solveTime=0.014055
%%%mzn-stat: solutions=1
%%%mzn-stat: failures=725
	Test input_order/indomain_min with N=17
%%%mzn-stat: solveTime=0.333832
%%%mzn-stat: solutions=1
%%%mzn-stat: failures=57950
%%%mzn-stat: solveTime=0.097607
%%%mzn-stat: solutions=1
%%%mzn-stat: failures=15652
%%%mzn-stat: solveTime=0.793719
%%%mzn-stat: solutions=1
%%%mzn-stat: failures=151364
%%%mzn-stat: solveTime=0.328818
%%%mzn-stat: solutions=1
%%%mzn-stat: failures=58070
%%%mzn-stat: solveTime=0.51647
%%%mzn-stat: solutions=1
%%%mzn-stat: failures=93453
	Test first_fail/indomain_min with N=17
%%%mzn-stat: solveTime=0.007285
%%%mzn-stat: solutions=1
%%%mzn-stat: failures=17
%%%mzn-stat: solveTime=0.007551
%%%mzn-stat: solutions=1
%%%mzn-stat: failures=17
%%%mzn-stat: solveTime=0.007374
%%%mzn-stat: solutions=1
%%%mzn-stat: failures=16
%%%mzn-stat: solveTime=0.007271
%%%mzn-stat: solutions=1
%%%mzn-stat: failures=17
%%%mzn-stat: solveTime=0.007267
%%%mzn-stat: solutions=1
%%%mzn-stat: failures=16
	Test dom_w_deg/indomain_min with N=17
%%%mzn-stat: solveTime=0.007834
%%%mzn-stat: solutions=1
%%%mzn-stat: failures=17
%%%mzn-stat: solveTime=0.00774
%%%mzn-stat: solutions=1
%%%mzn-stat: failures=16
%%%mzn-stat: solveTime=0.00782
%%%mzn-stat: solutions=1
%%%mzn-stat: failures=17
%%%mzn-stat: solveTime=0.007729
%%%mzn-stat: solutions=1
%%%mzn-stat: failures=17
%%%mzn-stat: solveTime=0.007886
%%%mzn-stat: solutions=1
%%%mzn-stat: failures=17
	Test input_order/indomain_random with N=17
%%%mzn-stat: solveTime=0.013371
%%%mzn-stat: solutions=1
%%%mzn-stat: failures=912
%%%mzn-stat: solveTime=0.048043
%%%mzn-stat: solutions=1
%%%mzn-stat: failures=7013
%%%mzn-stat: solveTime=0.088032
%%%mzn-stat: solutions=1
%%%mzn-stat: failures=15431
%%%mzn-stat: solveTime=0.096221
%%%mzn-stat: solutions=1
%%%mzn-stat: failures=16993
%%%mzn-stat: solveTime=0.192296
%%%mzn-stat: solutions=1
%%%mzn-stat: failures=34475
	Test dom_w_deg/indomain_random with N=17
%%%mzn-stat: solveTime=0.022839
%%%mzn-stat: solutions=1
%%%mzn-stat: failures=2652
%%%mzn-stat: solveTime=0.109642
%%%mzn-stat: solutions=1
%%%mzn-stat: failures=19193
%%%mzn-stat: solveTime=0.063143
%%%mzn-stat: solutions=1
%%%mzn-stat: failures=11053
%%%mzn-stat: solveTime=0.023686
%%%mzn-stat: solutions=1
%%%mzn-stat: failures=3147
%%%mzn-stat: solveTime=0.0094
%%%mzn-stat: solutions=1
%%%mzn-stat: failures=285
	Test input_order/indomain_min with N=18
%%%mzn-stat: solveTime=6.13328
%%%mzn-stat: solutions=1
%%%mzn-stat: failures=1344130
%%%mzn-stat: solveTime=9.58818
%%%mzn-stat: solutions=1
%%%mzn-stat: failures=2060581
%%%mzn-stat: solveTime=9.15703
%%%mzn-stat: solutions=1
%%%mzn-stat: failures=2041971
%%%mzn-stat: solveTime=0.858195
%%%mzn-stat: solutions=1
%%%mzn-stat: failures=182211
%%%mzn-stat: solveTime=1.11179
%%%mzn-stat: solutions=1
%%%mzn-stat: failures=228058
	Test first_fail/indomain_min with N=18
%%%mzn-stat: solveTime=45.956
%%%mzn-stat: solutions=1
%%%mzn-stat: failures=9557875
%%%mzn-stat: solveTime=31.889
%%%mzn-stat: solutions=1
%%%mzn-stat: failures=6308173
%%%mzn-stat: solveTime=120.002
%%%mzn-stat: solutions=0
%%%mzn-stat: failures=23651280
%%%mzn-stat: solveTime=30.8087
%%%mzn-stat: solutions=1
%%%mzn-stat: failures=6427701
%%%mzn-stat: solveTime=120.002
%%%mzn-stat: solutions=0
%%%mzn-stat: failures=23755879
	Test dom_w_deg/indomain_min with N=18
%%%mzn-stat: solveTime=31.519
%%%mzn-stat: solutions=1
%%%mzn-stat: failures=6395781
%%%mzn-stat: solveTime=65.5417
%%%mzn-stat: solutions=1
%%%mzn-stat: failures=13054247
%%%mzn-stat: solveTime=120.002
%%%mzn-stat: solutions=0
%%%mzn-stat: failures=24564425
%%%mzn-stat: solveTime=55.2513
%%%mzn-stat: solutions=1
%%%mzn-stat: failures=11548755
%%%mzn-stat: solveTime=120.002
%%%mzn-stat: solutions=0
%%%mzn-stat: failures=23747242
	Test input_order/indomain_random with N=18
%%%mzn-stat: solveTime=120.002
%%%mzn-stat: solutions=0
%%%mzn-stat: failures=26941048
%%%mzn-stat: solveTime=93.5296
%%%mzn-stat: solutions=1
%%%mzn-stat: failures=20341220
%%%mzn-stat: solveTime=120.002
%%%mzn-stat: solutions=0
%%%mzn-stat: failures=28391261
%%%mzn-stat: solveTime=120.002
%%%mzn-stat: solutions=0
%%%mzn-stat: failures=27893891
%%%mzn-stat: solveTime=120.002
%%%mzn-stat: solutions=0
%%%mzn-stat: failures=27058337
	Test dom_w_deg/indomain_random with N=18
%%%mzn-stat: solveTime=120.002
%%%mzn-stat: solutions=0
%%%mzn-stat: failures=25315312
%%%mzn-stat: solveTime=0.370837
%%%mzn-stat: solutions=1
%%%mzn-stat: failures=73276
%%%mzn-stat: solveTime=50.3394
%%%mzn-stat: solutions=1
%%%mzn-stat: failures=10534241
%%%mzn-stat: solveTime=14.1903
%%%mzn-stat: solutions=1
%%%mzn-stat: failures=2997972
%%%mzn-stat: solveTime=120.002
%%%mzn-stat: solutions=0
%%%mzn-stat: failures=24303444
	Test input_order/indomain_min with N=19
%%%mzn-stat: solveTime=0.09041
%%%mzn-stat: solutions=1
%%%mzn-stat: failures=12035
%%%mzn-stat: solveTime=0.077194
%%%mzn-stat: solutions=1
%%%mzn-stat: failures=10587
%%%mzn-stat: solveTime=0.092619
%%%mzn-stat: solutions=1
%%%mzn-stat: failures=12754
%%%mzn-stat: solveTime=0.10178
%%%mzn-stat: solutions=1
%%%mzn-stat: failures=13647
%%%mzn-stat: solveTime=0.096763
%%%mzn-stat: solutions=1
%%%mzn-stat: failures=13845
	Test first_fail/indomain_min with N=19
%%%mzn-stat: solveTime=0.00736
%%%mzn-stat: solutions=1
%%%mzn-stat: failures=9
%%%mzn-stat: solveTime=0.007366
%%%mzn-stat: solutions=1
%%%mzn-stat: failures=9
%%%mzn-stat: solveTime=0.007309
%%%mzn-stat: solutions=1
%%%mzn-stat: failures=10
%%%mzn-stat: solveTime=0.007436
%%%mzn-stat: solutions=1
%%%mzn-stat: failures=11
%%%mzn-stat: solveTime=0.007346
%%%mzn-stat: solutions=1
%%%mzn-stat: failures=11
	Test dom_w_deg/indomain_min with N=19
%%%mzn-stat: solveTime=0.007583
%%%mzn-stat: solutions=1
%%%mzn-stat: failures=9
%%%mzn-stat: solveTime=0.007784
%%%mzn-stat: solutions=1
%%%mzn-stat: failures=10
%%%mzn-stat: solveTime=0.007743
%%%mzn-stat: solutions=1
%%%mzn-stat: failures=9
%%%mzn-stat: solveTime=0.007704
%%%mzn-stat: solutions=1
%%%mzn-stat: failures=9
%%%mzn-stat: solveTime=0.007795
%%%mzn-stat: solutions=1
%%%mzn-stat: failures=11
	Test input_order/indomain_random with N=19
%%%mzn-stat: solveTime=14.5955
%%%mzn-stat: solutions=1
%%%mzn-stat: failures=2227666
%%%mzn-stat: solveTime=0.075119
%%%mzn-stat: solutions=1
%%%mzn-stat: failures=9809
%%%mzn-stat: solveTime=28.7066
%%%mzn-stat: solutions=1
%%%mzn-stat: failures=3934206
%%%mzn-stat: solveTime=10.3691
%%%mzn-stat: solutions=1
%%%mzn-stat: failures=1465921
%%%mzn-stat: solveTime=69.6188
%%%mzn-stat: solutions=1
%%%mzn-stat: failures=10036745
	Test dom_w_deg/indomain_random with N=19
%%%mzn-stat: solveTime=0.050402
%%%mzn-stat: solutions=1
%%%mzn-stat: failures=6995
%%%mzn-stat: solveTime=0.38723
%%%mzn-stat: solutions=1
%%%mzn-stat: failures=65132
%%%mzn-stat: solveTime=1.417
%%%mzn-stat: solutions=1
%%%mzn-stat: failures=244224
%%%mzn-stat: solveTime=1.18619
%%%mzn-stat: solutions=1
%%%mzn-stat: failures=199128
%%%mzn-stat: solveTime=0.330677
%%%mzn-stat: solutions=1
%%%mzn-stat: failures=56055
